instancesTest/cnfs/cnf5.sol
s 7106560
